param M := 5;  # Number of rows
param N := 4;  # Number of columns
param PIRELLONE :  1 2 3 4 :=
           1   0 0 0 1
           2   1 1 1 1
           3   0 1 0 0
           4   1 1 1 0
           5   1 0 1 1;
end;
